decision_x1=[0,4];
decision_x2=[0,4];
decision_x3=[0,4];
decision_x4=[0,4];
decision_x5=[0,4];
decision_x6=[0,4];
decision_x7=[0,4];
decision_x8=[0,4];
decision_x9=[0,4];
decision_x10=[0,4];
decision_x11=[0,4];
decision_x12=[0,4];
decision_x13=[0,4];
decision_x14=[0,4];
decision_x15=[0,4];
random_y1=[0,4];
random_y2=[0,4];
random_y3=[0,4];
constraint_x4_x1=[
0,1,4.8|
0,2,4.7|
0,3,9.5|
0,4,8.4|
1,0,3.4|
1,2,1.8|
1,3,0.18|
1,4,5.1|
2,0,2.5|
2,1,7.2|
2,3,9.1|
2,4,9.5|
3,0,10|
3,1,3.7|
3,2,3.4|
3,4,9.1|
4,0,6.6|
4,1,8.7|
4,2,0.83|
4,3,1|
];
constraint_x4_x2=[
0,1,5.3|
0,2,3.1|
0,3,2.2|
0,4,1.9|
1,0,8|
1,2,8.2|
1,3,6.7|
1,4,9.1|
2,0,3.7|
2,1,2.2|
2,3,6.4|
2,4,0.46|
3,0,5.2|
3,1,4.4|
3,2,6.3|
3,4,4|
4,0,0.88|
4,1,5|
4,2,2.3|
4,3,1.8|
];
constraint_x5_x2=[
0,1,5.3|
0,2,5.4|
0,3,3.1|
0,4,8|
1,0,6.5|
1,2,2.1|
1,3,7.3|
1,4,6.4|
2,0,4.1|
2,1,8.8|
2,3,7.2|
2,4,2.2|
3,0,5.6|
3,1,4.8|
3,2,3.4|
3,4,0.93|
4,0,0.93|
4,1,2.8|
4,2,2.1|
4,3,5.2|
];
constraint_x5_x3=[
0,1,6.6|
0,2,9.9|
0,3,7.1|
0,4,8.1|
1,0,6.4|
1,2,8.1|
1,3,2.3|
1,4,8|
2,0,5.7|
2,1,8.8|
2,3,9.4|
2,4,2.3|
3,0,0.51|
3,1,8.8|
3,2,1.4|
3,4,6.9|
4,0,2.4|
4,1,4.5|
4,2,9.1|
4,3,7|
];
constraint_x6_x1=[
0,1,2.9|
0,2,4|
0,3,2.3|
0,4,9|
1,0,3.7|
1,2,0.93|
1,3,8.9|
1,4,8|
2,0,2.1|
2,1,9.1|
2,3,2.4|
2,4,3.1|
3,0,9.1|
3,1,0.97|
3,2,4.9|
3,4,7.4|
4,0,1.3|
4,1,8.7|
4,2,4.1|
4,3,0.26|
];
constraint_x6_x3=[
0,1,8.9|
0,2,5.9|
0,3,8.4|
0,4,8.8|
1,0,1.2|
1,2,7.2|
1,3,9|
1,4,1.7|
2,0,0.19|
2,1,6.6|
2,3,3.5|
2,4,6.3|
3,0,8.9|
3,1,9.8|
3,2,6.8|
3,4,1|
4,0,6|
4,1,6.7|
4,2,5.7|
4,3,0.03|
];
constraint_x6_x4=[
0,1,3.6|
0,2,4.1|
0,3,6.6|
0,4,0.36|
1,0,1.7|
1,2,1.5|
1,3,7.7|
1,4,3.7|
2,0,6.4|
2,1,9.6|
2,3,9.8|
2,4,5.5|
3,0,5.1|
3,1,8.2|
3,2,7.5|
3,4,3.8|
4,0,4.4|
4,1,6.2|
4,2,6|
4,3,7.3|
];
constraint_x7_x1=[
0,1,6.6|
0,2,2.5|
0,3,3.4|
0,4,1.4|
1,0,0.01|
1,2,0.72|
1,3,7.8|
1,4,1.9|
2,0,3|
2,1,4.2|
2,3,6.9|
2,4,6.4|
3,0,8.8|
3,1,4.8|
3,2,2.5|
3,4,8.5|
4,0,0.83|
4,1,6.9|
4,2,2.3|
4,3,2|
];
constraint_x7_x2=[
0,1,1.7|
0,2,7|
0,3,4.6|
0,4,5.4|
1,0,8.4|
1,2,0.82|
1,3,3.2|
1,4,4.7|
2,0,9.6|
2,1,5.6|
2,3,5.1|
2,4,3.6|
3,0,2.9|
3,1,2.1|
3,2,3.4|
3,4,5.3|
4,0,0.44|
4,1,0.69|
4,2,9.5|
4,3,3.1|
];
constraint_x7_x3=[
0,1,9.1|
0,2,0.34|
0,3,4.9|
0,4,0.45|
1,0,7|
1,2,5.5|
1,3,6.8|
1,4,2.2|
2,0,9.9|
2,1,9.8|
2,3,9.9|
2,4,3.6|
3,0,4.6|
3,1,3.3|
3,2,2.3|
3,4,4.6|
4,0,6.1|
4,1,10|
4,2,6.4|
4,3,5.2|
];
constraint_x7_x5=[
0,1,6.4|
0,2,6.8|
0,3,8.9|
0,4,6.3|
1,0,5.2|
1,2,9.1|
1,3,3.6|
1,4,2.5|
2,0,8.6|
2,1,9|
2,3,7.1|
2,4,1.5|
3,0,0.51|
3,1,6.8|
3,2,5.7|
3,4,9.8|
4,0,3.9|
4,1,5.4|
4,2,3.2|
4,3,1.2|
];
constraint_x7_x6=[
0,1,7.2|
0,2,6.3|
0,3,5.1|
0,4,4.3|
1,0,2|
1,2,3.5|
1,3,1.3|
1,4,0.76|
2,0,3.4|
2,1,1.6|
2,3,8.9|
2,4,4.2|
3,0,2.4|
3,1,4.5|
3,2,1.6|
3,4,6.6|
4,0,4.8|
4,1,7.8|
4,2,2|
4,3,0.23|
];
constraint_x8_x1=[
0,1,3.8|
0,2,3.7|
0,3,6.6|
0,4,3.6|
1,0,7.8|
1,2,3.9|
1,3,4.2|
1,4,9.4|
2,0,0.15|
2,1,5|
2,3,4.3|
2,4,5.3|
3,0,2.1|
3,1,3.4|
3,2,7.8|
3,4,7|
4,0,2.7|
4,1,2.9|
4,2,6|
4,3,6.2|
];
constraint_x8_x3=[
0,1,0.24|
0,2,5.5|
0,3,3|
0,4,9.1|
1,0,9.8|
1,2,7.9|
1,3,0.32|
1,4,3.4|
2,0,7.6|
2,1,2.1|
2,3,5.8|
2,4,1.6|
3,0,0.18|
3,1,0.45|
3,2,6|
3,4,3.3|
4,0,3.1|
4,1,0.58|
4,2,9.6|
4,3,9.3|
];
constraint_x9_x1=[
0,1,2.7|
0,2,0.59|
0,3,8.3|
0,4,7.9|
1,0,9|
1,2,5.3|
1,3,4.8|
1,4,4.9|
2,0,0.63|
2,1,2.6|
2,3,2.7|
2,4,8.7|
3,0,2.6|
3,1,8.2|
3,2,0.035|
3,4,6.9|
4,0,4.3|
4,1,0.21|
4,2,8.5|
4,3,0.31|
];
constraint_x9_x2=[
0,1,7.8|
0,2,8.7|
0,3,5.4|
0,4,4.3|
1,0,3.6|
1,2,3.2|
1,3,7.3|
1,4,6.5|
2,0,2.3|
2,1,5.7|
2,3,3.4|
2,4,4.6|
3,0,5.5|
3,1,8.2|
3,2,3.2|
3,4,6.9|
4,0,1.1|
4,1,9.5|
4,2,1.1|
4,3,9.5|
];
constraint_x9_x3=[
0,1,5.1|
0,2,1.5|
0,3,6.8|
0,4,8.5|
1,0,1.2|
1,2,2|
1,3,3.9|
1,4,6.9|
2,0,5.5|
2,1,0.4|
2,3,1.8|
2,4,2.7|
3,0,2.4|
3,1,6.1|
3,2,7.5|
3,4,5.6|
4,0,0.66|
4,1,2.6|
4,2,7.5|
4,3,8.7|
];
constraint_x9_x6=[
0,1,6.3|
0,2,5.3|
0,3,9.1|
0,4,2.3|
1,0,5.6|
1,2,7.4|
1,3,0.19|
1,4,9.5|
2,0,1.6|
2,1,2.3|
2,3,5.2|
2,4,4.9|
3,0,9.8|
3,1,5.6|
3,2,0.69|
3,4,4.6|
4,0,8.5|
4,1,6.2|
4,2,8.6|
4,3,6.6|
];
constraint_x9_x7=[
0,1,9.4|
0,2,5.8|
0,3,9.3|
0,4,8.8|
1,0,3.2|
1,2,3.7|
1,3,5.5|
1,4,7.9|
2,0,9.3|
2,1,6.3|
2,3,3.1|
2,4,8|
3,0,3.8|
3,1,9.6|
3,2,5.7|
3,4,1.1|
4,0,5.4|
4,1,7.3|
4,2,8.5|
4,3,5.4|
];
constraint_x9_x8=[
0,1,8|
0,2,2.2|
0,3,2.1|
0,4,9.4|
1,0,0.28|
1,2,6.4|
1,3,6|
1,4,5|
2,0,0.79|
2,1,0.31|
2,3,2.8|
2,4,0.81|
3,0,2.1|
3,1,6.1|
3,2,5.4|
3,4,2.3|
4,0,6.7|
4,1,1|
4,2,1|
4,3,4|
];
constraint_x10_x1=[
0,1,5|
0,2,3|
0,3,5|
0,4,3|
1,0,5.8|
1,2,1.8|
1,3,8|
1,4,8|
2,0,6.8|
2,1,7.7|
2,3,6.2|
2,4,10|
3,0,4.2|
3,1,0.24|
3,2,1.4|
3,4,3.1|
4,0,9.2|
4,1,1.2|
4,2,5.7|
4,3,4.4|
];
constraint_x10_x3=[
0,1,1.9|
0,2,5.3|
0,3,3.9|
0,4,0.29|
1,0,7.1|
1,2,8.2|
1,3,0.24|
1,4,5.7|
2,0,4|
2,1,7.7|
2,3,6.1|
2,4,8.9|
3,0,4.1|
3,1,5.9|
3,2,1.8|
3,4,5.4|
4,0,8.1|
4,1,1.1|
4,2,4.4|
4,3,6.7|
];
constraint_x10_x5=[
0,1,4.8|
0,2,2.7|
0,3,7|
0,4,2.8|
1,0,7.8|
1,2,1.8|
1,3,1.5|
1,4,6.6|
2,0,1.6|
2,1,0.6|
2,3,2.5|
2,4,4.9|
3,0,2.9|
3,1,3.1|
3,2,4.4|
3,4,6.5|
4,0,3|
4,1,0.38|
4,2,7.3|
4,3,3.4|
];
constraint_x10_x7=[
0,1,9.7|
0,2,0.21|
0,3,5.3|
0,4,2.1|
1,0,3.6|
1,2,0.37|
1,3,2.1|
1,4,1.7|
2,0,6.1|
2,1,4.2|
2,3,9.9|
2,4,0.95|
3,0,3.4|
3,1,2|
3,2,6.1|
3,4,3.6|
4,0,9.6|
4,1,2.5|
4,2,1.1|
4,3,3|
];
constraint_x11_x2=[
0,1,1.9|
0,2,5.1|
0,3,2.5|
0,4,1.4|
1,0,0.26|
1,2,5.9|
1,3,8.2|
1,4,4.5|
2,0,6.2|
2,1,7|
2,3,6|
2,4,4.6|
3,0,3.7|
3,1,7.6|
3,2,9.7|
3,4,7.8|
4,0,9|
4,1,2.1|
4,2,2.3|
4,3,7.8|
];
constraint_x11_x4=[
0,1,8.5|
0,2,4.6|
0,3,0.9|
0,4,3.2|
1,0,6.4|
1,2,0.17|
1,3,5.3|
1,4,9.3|
2,0,9.4|
2,1,5|
2,3,6.6|
2,4,9.2|
3,0,6.2|
3,1,9.9|
3,2,7.2|
3,4,3.7|
4,0,6.9|
4,1,5.9|
4,2,1.2|
4,3,7.7|
];
constraint_x11_x7=[
0,1,6.1|
0,2,9.9|
0,3,9.2|
0,4,3.6|
1,0,1.4|
1,2,6.1|
1,3,8.6|
1,4,4.3|
2,0,9.9|
2,1,6|
2,3,9.1|
2,4,0.72|
3,0,0.03|
3,1,1.9|
3,2,0.4|
3,4,3.4|
4,0,4.9|
4,1,9.6|
4,2,4.1|
4,3,8|
];
constraint_x11_x9=[
0,1,4.4|
0,2,5.5|
0,3,9.9|
0,4,3.1|
1,0,7.7|
1,2,8.3|
1,3,5.4|
1,4,2.6|
2,0,0.027|
2,1,4.8|
2,3,7.4|
2,4,5.8|
3,0,7.8|
3,1,7|
3,2,8.9|
3,4,1.9|
4,0,1.1|
4,1,3.6|
4,2,6.5|
4,3,1.5|
];
constraint_x12_x1=[
0,1,4.3|
0,2,4.1|
0,3,5.8|
0,4,5.5|
1,0,3.9|
1,2,7.4|
1,3,5|
1,4,0.17|
2,0,2.4|
2,1,5.8|
2,3,8.7|
2,4,1.9|
3,0,3.3|
3,1,3.7|
3,2,5.1|
3,4,2|
4,0,3.5|
4,1,8.4|
4,2,3|
4,3,9.3|
];
constraint_x12_x3=[
0,1,7.4|
0,2,7.2|
0,3,3.6|
0,4,2.9|
1,0,4.9|
1,2,7.8|
1,3,8.1|
1,4,8.7|
2,0,0.015|
2,1,9.6|
2,3,5.6|
2,4,6.2|
3,0,8.7|
3,1,1.1|
3,2,1.3|
3,4,6.2|
4,0,1.5|
4,1,2.1|
4,2,5.3|
4,3,5.6|
];
constraint_x12_x4=[
0,1,6.8|
0,2,3.8|
0,3,5.5|
0,4,2.8|
1,0,9.9|
1,2,0.24|
1,3,0.61|
1,4,7.2|
2,0,1.6|
2,1,9|
2,3,7|
2,4,6.7|
3,0,8.3|
3,1,0.79|
3,2,0.66|
3,4,2.9|
4,0,2.8|
4,1,5.5|
4,2,5.5|
4,3,2.5|
];
constraint_x12_x9=[
0,1,8|
0,2,5.5|
0,3,4.9|
0,4,1.7|
1,0,8.7|
1,2,2.2|
1,3,3.3|
1,4,7.9|
2,0,9.4|
2,1,8.7|
2,3,1.9|
2,4,9.7|
3,0,5.1|
3,1,1.3|
3,2,5|
3,4,0.86|
4,0,0.89|
4,1,0.27|
4,2,5.1|
4,3,4|
];
constraint_x12_x10=[
0,1,6.6|
0,2,3.3|
0,3,5|
0,4,9|
1,0,7.2|
1,2,9.7|
1,3,3.8|
1,4,4.6|
2,0,9|
2,1,4.9|
2,3,3.4|
2,4,4.3|
3,0,1.4|
3,1,8|
3,2,3.3|
3,4,8.9|
4,0,2|
4,1,2.7|
4,2,3.6|
4,3,2.9|
];
constraint_x12_x11=[
0,1,9.2|
0,2,8.4|
0,3,8.6|
0,4,8.4|
1,0,1.6|
1,2,8.8|
1,3,7|
1,4,7.8|
2,0,3.2|
2,1,0.16|
2,3,5.6|
2,4,8.8|
3,0,3.5|
3,1,9.7|
3,2,5.9|
3,4,9.8|
4,0,2.9|
4,1,2.5|
4,2,6.5|
4,3,6.9|
];
constraint_x13_x1=[
0,1,0.085|
0,2,4.3|
0,3,4|
0,4,5.2|
1,0,2.5|
1,2,6.7|
1,3,9.8|
1,4,5.9|
2,0,0.25|
2,1,9.8|
2,3,8.9|
2,4,0.74|
3,0,1.3|
3,1,6.4|
3,2,6.1|
3,4,9.3|
4,0,2.7|
4,1,5.9|
4,2,0.33|
4,3,6.5|
];
constraint_x13_x2=[
0,1,6.4|
0,2,3.9|
0,3,8.8|
0,4,0.64|
1,0,6.3|
1,2,2.2|
1,3,9.9|
1,4,9.4|
2,0,5.8|
2,1,0.26|
2,3,3.7|
2,4,3.5|
3,0,7.9|
3,1,7|
3,2,7.2|
3,4,1.7|
4,0,3.7|
4,1,3.4|
4,2,1.7|
4,3,8.8|
];
constraint_x13_x3=[
0,1,2|
0,2,7|
0,3,6.6|
0,4,0.95|
1,0,7.5|
1,2,3|
1,3,1.8|
1,4,4.8|
2,0,5.1|
2,1,3.4|
2,3,6.1|
2,4,0.29|
3,0,5.7|
3,1,1.5|
3,2,9.5|
3,4,8.5|
4,0,4.1|
4,1,7.7|
4,2,3.7|
4,3,4|
];
constraint_x13_x4=[
0,1,6.3|
0,2,7.8|
0,3,1.6|
0,4,8|
1,0,6.6|
1,2,2.1|
1,3,8.4|
1,4,0.14|
2,0,0.051|
2,1,1.6|
2,3,4|
2,4,6.5|
3,0,9.8|
3,1,2|
3,2,5.2|
3,4,5|
4,0,1.7|
4,1,8.9|
4,2,4.7|
4,3,1.9|
];
constraint_x13_x5=[
0,1,7.6|
0,2,0.51|
0,3,2.4|
0,4,1.7|
1,0,1.4|
1,2,2.8|
1,3,1.6|
1,4,2.9|
2,0,8.1|
2,1,0.55|
2,3,1.4|
2,4,0.22|
3,0,9.1|
3,1,6.3|
3,2,9.4|
3,4,8.6|
4,0,6.7|
4,1,0.38|
4,2,5.9|
4,3,5.9|
];
constraint_x13_x7=[
0,1,5.1|
0,2,7.7|
0,3,8.3|
0,4,0.55|
1,0,3.9|
1,2,9.5|
1,3,5.1|
1,4,0.51|
2,0,5.6|
2,1,0.83|
2,3,3.1|
2,4,0.59|
3,0,6.1|
3,1,2.1|
3,2,2.9|
3,4,9.6|
4,0,5.6|
4,1,1.6|
4,2,9.3|
4,3,1.7|
];
constraint_x13_x8=[
0,1,5.6|
0,2,5.7|
0,3,3.1|
0,4,0.12|
1,0,0.68|
1,2,5.1|
1,3,9.9|
1,4,4.7|
2,0,8.3|
2,1,9.2|
2,3,6|
2,4,2.1|
3,0,0.3|
3,1,0.62|
3,2,2.4|
3,4,9.5|
4,0,2.7|
4,1,6.4|
4,2,9.4|
4,3,4.8|
];
constraint_x13_x12=[
0,1,9.1|
0,2,1.5|
0,3,7.9|
0,4,2.2|
1,0,0.68|
1,2,2.8|
1,3,9.4|
1,4,1.9|
2,0,2.4|
2,1,5.1|
2,3,3.7|
2,4,2.1|
3,0,4.3|
3,1,2.1|
3,2,2|
3,4,9.2|
4,0,4.9|
4,1,3.8|
4,2,2.8|
4,3,2.4|
];
constraint_x14_x1=[
0,1,4.3|
0,2,3.4|
0,3,9.7|
0,4,1|
1,0,6.9|
1,2,10|
1,3,6.1|
1,4,6.2|
2,0,5.4|
2,1,7.5|
2,3,9.9|
2,4,8.9|
3,0,4.3|
3,1,8.3|
3,2,5.2|
3,4,1.1|
4,0,8.4|
4,1,0.83|
4,2,5.6|
4,3,9.1|
];
constraint_x14_x3=[
0,1,6.4|
0,2,0.31|
0,3,7|
0,4,1.5|
1,0,6.8|
1,2,4.5|
1,3,9.2|
1,4,3.8|
2,0,0.15|
2,1,4.4|
2,3,4.8|
2,4,2.1|
3,0,4.4|
3,1,6.9|
3,2,4.6|
3,4,1.2|
4,0,0.95|
4,1,9.8|
4,2,8.9|
4,3,9.7|
];
constraint_x14_x9=[
0,1,1.8|
0,2,3.1|
0,3,0.48|
0,4,5.5|
1,0,6.2|
1,2,7.2|
1,3,9.3|
1,4,8.6|
2,0,4.9|
2,1,8.1|
2,3,7.9|
2,4,3.2|
3,0,4.1|
3,1,7.2|
3,2,0.96|
3,4,8.3|
4,0,5.3|
4,1,4.4|
4,2,6.4|
4,3,8.7|
];
constraint_x14_x10=[
0,1,0.062|
0,2,9.5|
0,3,0.7|
0,4,6.3|
1,0,1.6|
1,2,5.6|
1,3,3.5|
1,4,9.6|
2,0,0.64|
2,1,3.3|
2,3,0.58|
2,4,6.4|
3,0,1.9|
3,1,8.2|
3,2,4.5|
3,4,7.9|
4,0,4.7|
4,1,4.3|
4,2,9.9|
4,3,8.2|
];
constraint_x14_x12=[
0,1,9.1|
0,2,1.9|
0,3,1.1|
0,4,0.6|
1,0,5.4|
1,2,0.64|
1,3,2.2|
1,4,0.61|
2,0,7.6|
2,1,8.4|
2,3,3.8|
2,4,9.7|
3,0,0.67|
3,1,5.8|
3,2,2.9|
3,4,3.7|
4,0,2.9|
4,1,4.2|
4,2,8.4|
4,3,6.1|
];
constraint_x15_x3=[
0,1,1.7|
0,2,4|
0,3,6|
0,4,6.2|
1,0,0.18|
1,2,2.9|
1,3,4.6|
1,4,7.5|
2,0,2.9|
2,1,3.1|
2,3,3.3|
2,4,7.8|
3,0,9.5|
3,1,2.6|
3,2,5|
3,4,4.3|
4,0,6.8|
4,1,0.65|
4,2,1.9|
4,3,7.7|
];
constraint_x15_x7=[
0,1,8.4|
0,2,0.71|
0,3,8.9|
0,4,7.2|
1,0,8.9|
1,2,2.7|
1,3,0.39|
1,4,1.7|
2,0,6|
2,1,2.9|
2,3,5.6|
2,4,6.8|
3,0,1.2|
3,1,7.5|
3,2,9.6|
3,4,1.5|
4,0,3.2|
4,1,7.9|
4,2,2.9|
4,3,7|
];
constraint_x15_x10=[
0,1,1|
0,2,5.4|
0,3,8.9|
0,4,2.8|
1,0,5.1|
1,2,9.8|
1,3,2.5|
1,4,4.3|
2,0,6.9|
2,1,8.6|
2,3,3.7|
2,4,9.8|
3,0,0.53|
3,1,5.9|
3,2,3.1|
3,4,6|
4,0,0.09|
4,1,3.2|
4,2,4.3|
4,3,4.6|
];
constraint_x15_x11=[
0,1,6.6|
0,2,8.1|
0,3,9.7|
0,4,9.9|
1,0,1.3|
1,2,9.4|
1,3,9.4|
1,4,3|
2,0,3.5|
2,1,8.5|
2,3,1.7|
2,4,9.8|
3,0,6.8|
3,1,0.62|
3,2,9.7|
3,4,1.4|
4,0,9.9|
4,1,2.7|
4,2,6.7|
4,3,4|
];
constraint_x15_x12=[
0,1,6.3|
0,2,2.9|
0,3,7.9|
0,4,6.9|
1,0,2.5|
1,2,4.3|
1,3,7|
1,4,8.7|
2,0,5.1|
2,1,3.3|
2,3,3.6|
2,4,8.6|
3,0,5.5|
3,1,1.7|
3,2,9.9|
3,4,1.4|
4,0,8.6|
4,1,4.6|
4,2,8.7|
4,3,3.2|
];
constraint_x15_x13=[
0,1,8.2|
0,2,3.2|
0,3,2.8|
0,4,4.3|
1,0,7.1|
1,2,0.072|
1,3,7.2|
1,4,2.3|
2,0,2.8|
2,1,0.78|
2,3,2.1|
2,4,6.9|
3,0,9.3|
3,1,6.4|
3,2,2|
3,4,9|
4,0,9|
4,1,8.7|
4,2,9.2|
4,3,8.3|
];
constraint_x1_y1=[
0,0,3|
0,1,6.4|
0,2,6.5|
0,3,7.8|
0,4,9.5|
1,0,5.1|
1,1,5.4|
1,2,2.9|
1,3,7.9|
1,4,9.9|
2,0,9.2|
2,1,7.5|
2,2,1.8|
2,3,2.5|
2,4,3.3|
3,0,4.8|
3,1,0.87|
3,2,2.1|
3,3,4.3|
3,4,4.7|
4,0,9.6|
4,1,3.3|
4,2,5.8|
4,3,8.3|
4,4,0.57|
];
constraint_x2_y2=[
0,0,0.57|
0,1,1.7|
0,2,3|
0,3,2.2|
0,4,9.1|
1,0,3.5|
1,1,4.5|
1,2,5.4|
1,3,4.4|
1,4,9.1|
2,0,5.4|
2,1,6|
2,2,0.88|
2,3,5.4|
2,4,5.5|
3,0,2.4|
3,1,0.13|
3,2,0.37|
3,3,8.7|
3,4,2.8|
4,0,8.6|
4,1,5.2|
4,2,6.8|
4,3,2.3|
4,4,0.093|
];
constraint_x3_y3=[
0,0,8.4|
0,1,7.7|
0,2,9.3|
0,3,0.67|
0,4,4.8|
1,0,0.55|
1,1,8|
1,2,2.9|
1,3,1.3|
1,4,5.5|
2,0,9.1|
2,1,3.3|
2,2,5.8|
2,3,1|
2,4,0.35|
3,0,1.3|
3,1,4.3|
3,2,7.1|
3,3,3.4|
3,4,3.3|
4,0,9.1|
4,1,1.7|
4,2,2.7|
4,3,8.8|
4,4,8.1|
];
initial_distribution_y1=[0.24,0.53,0.075,0.05,0.11];
initial_distribution_y2=[0.14,0.062,0.22,0.34,0.24];
initial_distribution_y3=[0.13,0.15,0.15,0.25,0.32];
transition_y1=[
0.36,0.15,0.21,0.27,0.009|
0.24,0.062,0.083,0.37,0.25|
0.15,0.07,0.25,0.28,0.26|
0.28,0.23,0.17,0.16,0.17|
0.28,0.075,0.23,0.2,0.21|
];
transition_y2=[
0.28,0.3,0.065,0.073,0.29|
0.3,0.24,0.15,0.12,0.2|
0.19,0.25,0.079,0.25,0.23|
0.29,0.35,0.23,0.09,0.044|
0.17,0.082,0.18,0.24,0.32|
];
transition_y3=[
0.2,0.17,0.28,0.2,0.16|
0.04,0.26,0.31,0.079,0.31|
0.37,0.04,0.11,0.11,0.37|
0.38,0.25,0.096,0.25,0.031|
0.53,0.09,0.32,0.012,0.052|
];
